.Version 10.0.5 of ABINIT, released Apr 2024.

 ABINIT is a project of the Universite Catholique de Louvain,
 Corning Inc. and other collaborators, see ~abinit/doc/developers/contributors.txt .
 acknowledgments of the ABINIT effort.

.Starting date : Mon 10 Jun 2024.
- ( at 14h42 )

- input  file    -> hBN.abi
- output file    -> hBN.abo
- root for input  files -> hBNi
- root for output files -> hBNo

 DATASET    1 : space group Cm c m (# 63); Bravais oC (1-face-center ortho.)
     intxc =       0    ionmov =       2      iscf =       7    lmnmax =       6
     lnmax =       6     mgfft =     240  mpssoang =       3    mqgrid =   11696
     natom =       4  nloc_mem =       1    nspden =       1   nspinor =       1
    nsppol =       1      nsym =       8    n1xccc =    2501    ntypat =       2
    occopt =       3   xclevel =       2
-    mband =           8        mffmem =           1         mkmem =          14
       mpw =       22759          nfft =      486000          nkpt =          14
  Rough estimation (10% accuracy) of disk space for files :

------------- Echo of variables that govern the present computation ------------
-
- outvars: echo of selected default values
-   iomode0 =  0 , fftalg0 =112 , wfoptalg0 =  0
-
- outvars: echo of global parameters not present in the input file
-  max_nthreads =    0
-
 -outvars: echo values of preprocessed input variables --------
            acell      1.0000000000E+00  1.0000000000E+00  1.0000000000E+00 Bohr
              amu      2.80855000E+01  1.20110000E+01
           diemac      1.00000000E+01
           diemix      7.00000000E-01
             ecut      7.50000000E+01 Hartree
-          fftalg         112
           ionmov           2
              ixc          11
           jdtset        1
              kpt      0.00000000E+00  0.00000000E+00  1.25000000E-01
                       2.50000000E-01  0.00000000E+00  1.25000000E-01
                       5.00000000E-01  0.00000000E+00  1.25000000E-01
                       2.50000000E-01  2.50000000E-01  1.25000000E-01
                       5.00000000E-01  2.50000000E-01  1.25000000E-01
                      -2.50000000E-01  2.50000000E-01  1.25000000E-01
                       5.00000000E-01  5.00000000E-01  1.25000000E-01
                       0.00000000E+00  0.00000000E+00  3.75000000E-01
                       2.50000000E-01  0.00000000E+00  3.75000000E-01
                       5.00000000E-01  0.00000000E+00  3.75000000E-01
                       2.50000000E-01  2.50000000E-01  3.75000000E-01
                       5.00000000E-01  2.50000000E-01  3.75000000E-01
                      -2.50000000E-01  2.50000000E-01  3.75000000E-01
                       5.00000000E-01  5.00000000E-01  3.75000000E-01
         kptrlatt        4    0    0      0    4    0      0    0    4
          kptrlen      2.12000000E+01
P           mkmem          14
            natom           4
            nband           8
           ndtset           1
            ngfft          45      45     240
             nkpt          14
            nstep         100
             nsym           8
            ntime        1000
           ntypat           2
              occ      2.000000  2.000000  2.000000  2.000000  2.000000  2.000000
                       2.000000  2.000000
                       2.000000  2.000000  2.000000  2.000000  2.000000  2.000000
                       2.000000  2.000000
                       2.000000  2.000000  2.000000  2.000000  2.000000  2.000000
                       2.000000  2.000000
                       2.000000  2.000000  2.000000  2.000000  2.000000  2.000000
                       2.000000  2.000000
                       2.000000  2.000000  2.000000  2.000000  2.000000  2.000000
                       2.000000  2.000000
                       2.000000  2.000000  2.000000  2.000000  2.000000  2.000000
                       2.000000  2.000000
                       2.000000  2.000000  2.000000  2.000000  2.000000  2.000000
                       2.000000  2.000000
                       2.000000  2.000000  2.000000  2.000000  2.000000  2.000000
                       2.000000  2.000000
                       2.000000  2.000000  2.000000  2.000000  2.000000  2.000000
                       2.000000  2.000000
                       2.000000  2.000000  2.000000  2.000000  2.000000  2.000000
                       2.000000  2.000000
                       2.000000  2.000000  2.000000  2.000000  2.000000  2.000000
                       2.000000  2.000000
                       2.000000  2.000000  2.000000  2.000000  2.000000  2.000000
                       2.000000  2.000000
                       2.000000  2.000000  2.000000  2.000000  2.000000  2.000000
                       2.000000  2.000000
                       2.000000  2.000000  2.000000  2.000000  2.000000  2.000000
                       2.000000  2.000000
           occopt           3
            rprim      2.6500000000E+00  4.6000000000E+00  0.0000000000E+00
                      -2.6500000000E+00  4.6000000000E+00  0.0000000000E+00
                       0.0000000000E+00  0.0000000000E+00  3.0000000000E+01
           shiftk      0.00000000E+00  0.00000000E+00  5.00000000E-01
          spgroup          63
           symrel      1  0  0   0  1  0   0  0  1      -1  0  0   0 -1  0   0  0 -1
                       0 -1  0  -1  0  0   0  0 -1       0  1  0   1  0  0   0  0  1
                      -1  0  0   0 -1  0   0  0  1       1  0  0   0  1  0   0  0 -1
                       0  1  0   1  0  0   0  0 -1       0 -1  0  -1  0  0   0  0  1
            tnons      0.0000000  0.0000000  0.0000000    -0.0000000 -0.0000000  0.0000000
                      -0.0000000 -0.0000000  0.5000000     0.0000000  0.0000000  0.5000000
                      -0.0000000 -0.0000000  0.5000000     0.0000000  0.0000000  0.5000000
                       0.0000000  0.0000000  0.0000000    -0.0000000 -0.0000000  0.0000000
           toldfe      1.00000000E-08 Hartree
            typat      1  2  1  2
              wtk        0.03125    0.12500    0.06250    0.06250    0.12500    0.06250
                         0.03125    0.03125    0.12500    0.06250    0.06250    0.12500
                         0.06250    0.03125
           xangst     -4.7678866494E-01  2.4342151595E+00  3.9688290644E+00
                       4.7678866494E-01  2.4342151595E+00  3.9688290644E+00
                       4.7678866494E-01  2.4342151595E+00  1.1906487193E+01
                      -4.7678866494E-01  2.4342151595E+00  1.1906487193E+01
            xcart     -9.0100000000E-01  4.6000000000E+00  7.5000000000E+00
                       9.0100000000E-01  4.6000000000E+00  7.5000000000E+00
                       9.0100000000E-01  4.6000000000E+00  2.2500000000E+01
                      -9.0100000000E-01  4.6000000000E+00  2.2500000000E+01
             xred      3.3000000000E-01  6.7000000000E-01  2.5000000000E-01
                       6.7000000000E-01  3.3000000000E-01  2.5000000000E-01
                       6.7000000000E-01  3.3000000000E-01  7.5000000000E-01
                       3.3000000000E-01  6.7000000000E-01  7.5000000000E-01
            znucl       14.00000    6.00000

 chkinp: Checking input parameters for consistency, jdtset=   1.

== DATASET  1 ==================================================================
-   mpi_nproc: 1, omp_nthreads: -1 (-1 if OMP is not activated)

--- !DatasetInfo
iteration_state: {dtset: 1, }
dimensions: {natom: 4, nkpt: 14, mband: 8, nsppol: 1, nspinor: 1, nspden: 1, mpw: 22759, }
cutoff_energies: {ecut:  75.0, pawecutdg:  -1.0, }
electrons: {nelect:   1.60000000E+01, charge:   0.00000000E+00, occopt:   3.00000000E+00, tsmear:   1.00000000E-02, }
meta: {optdriver: 0, ionmov: 2, optcell: 0, iscf: 7, paral_kgb: 0, }
...

 Real(R)+Recip(G) space primitive vectors, cartesian coordinates (Bohr,Bohr^-1):
 R(1)=  2.6500000  4.6000000  0.0000000  G(1)=  0.1886792  0.1086957  0.0000000
 R(2)= -2.6500000  4.6000000  0.0000000  G(2)= -0.1886792  0.1086957  0.0000000
 R(3)=  0.0000000  0.0000000 30.0000000  G(3)=  0.0000000  0.0000000  0.0333333
 Unit cell volume ucvol=  7.3140000E+02 bohr^3
 Angles (23,13,12)=  9.00000000E+01  9.00000000E+01  5.98913669E+01 degrees

 getcut: wavevector=  0.0000  0.0000  0.0000  ngfft=  45  45 240
         ecut(hartree)=     75.000   => boxcut(ratio)=   2.05208

--- Pseudopotential description ------------------------------------------------
- pspini: atom type   1  psp file is /home/hrishi/abinit-10.0.5/Pseudopotentials/Si.psp8
- pspatm: opening atomic psp file    /home/hrishi/abinit-10.0.5/Pseudopotentials/Si.psp8
- Si    ONCVPSP-3.2.3.1  r_core=   1.60303   1.72197   1.91712
- 14.00000   4.00000    170510                znucl, zion, pspdat
    8   11    2    4       600   0.00000      pspcod,pspxc,lmax,lloc,mmax,r2well
    5.99000000000000    4.00000000000000    0.00000000000000   rchrg,fchrg,qchrg
     nproj     2     2     2
     extension_switch     1
  pspatm : epsatm=    9.34321699
         --- l  ekb(1:nproj) -->
             0    5.168965    0.829883
             1    2.571282    0.578307
             2   -2.427311   -0.488097
 pspatm: atomic psp has been read  and splines computed

- pspini: atom type   2  psp file is /home/hrishi/abinit-10.0.5/Pseudopotentials/C.psp8
- pspatm: opening atomic psp file    /home/hrishi/abinit-10.0.5/Pseudopotentials/C.psp8
- C     ONCVPSP-3.2.3.1  r_core=   1.20440   1.26326
-  6.00000   4.00000    170503                znucl, zion, pspdat
    8   11    1    4       600   0.00000      pspcod,pspxc,lmax,lloc,mmax,r2well
    5.99000000000000    4.00000000000000    0.00000000000000   rchrg,fchrg,qchrg
     nproj     2     2
     extension_switch     1
  pspatm : epsatm=    4.31347020
         --- l  ekb(1:nproj) -->
             0    6.481548    0.385504
             1   -4.199961   -0.877517
 pspatm: atomic psp has been read  and splines computed

   4.37013990E+02                                ecore*ucvol(ha*bohr**3)

_setup2: Arith. and geom. avg. npw (full set) are   22696.500   22696.487

=== [ionmov= 2] Broyden-Fletcher-Goldfard-Shanno method (forces)

--- Iteration: (   1/1000) Internal Cycle: (1/1)

---SELF-CONSISTENT-FIELD CONVERGENCE--------------------------------------------

--- !BeginCycle
iteration_state: {dtset: 1, itime: 1, icycle: 1, }
solver: {iscf: 7, nstep: 100, nline: 4, wfoptalg: 0, }
tolerances: {toldfe: 1.00E-08, }
...

     iter   Etot(hartree)      deltaE(h)  residm     vres2
 ETOT  1  -16.723685865161    -1.672E+01 2.660E-01 2.469E+04
 ETOT  2  -17.787230189614    -1.064E+00 7.640E-04 2.348E+03
 ETOT  3  -17.807626490515    -2.040E-02 3.594E-04 1.954E+03
 ETOT  4  -17.814304322640    -6.678E-03 3.907E-05 2.670E+02
 ETOT  5  -17.815467766570    -1.163E-03 9.862E-06 1.912E+02
 ETOT  6  -17.815530683535    -6.292E-05 9.150E-06 5.154E+01
 ETOT  7  -17.815612513514    -8.183E-05 1.309E-06 1.037E+01
 ETOT  8  -17.815634245049    -2.173E-05 2.727E-07 8.599E-01
 ETOT  9  -17.815635611554    -1.367E-06 1.038E-07 1.268E-01
 ETOT 10  -17.815635955440    -3.439E-07 1.989E-08 2.583E-03
 ETOT 11  -17.815635967926    -1.249E-08 1.696E-09 3.472E-04
[...]

 Cartesian coordinates (xcart) [bohr]
 -9.01000000000000E-01  4.60000000000000E+00  7.50000000000000E+00
  9.01000000000000E-01  4.60000000000000E+00  7.50000000000000E+00
  9.01000000000000E-01  4.60000000000000E+00  2.25000000000000E+01
 -9.01000000000000E-01  4.60000000000000E+00  2.25000000000000E+01
 Reduced coordinates (xred)
  3.30000000000000E-01  6.70000000000000E-01  2.50000000000000E-01
  6.70000000000000E-01  3.30000000000000E-01  2.50000000000000E-01
  6.70000000000000E-01  3.30000000000000E-01  7.50000000000000E-01
  3.30000000000000E-01  6.70000000000000E-01  7.50000000000000E-01
 Cartesian forces (fcart) [Ha/bohr]; max,rms= 2.99543E+00 1.72941E+00 (free atoms)
 -2.99542881224495E+00 -4.84579575968938E-17 -0.00000000000000E+00
  2.99542925828856E+00  5.32850106596638E-17 -0.00000000000000E+00
  2.99542881224495E+00  4.84579575968938E-17 -0.00000000000000E+00
 -2.99542925828856E+00 -5.32850106596638E-17 -0.00000000000000E+00
 Gradient of E wrt nuclear positions in reduced coordinates (gred)
  7.93788635244913E+00 -7.93788635244913E+00  0.00000000000000E+00
 -7.93788753446469E+00  7.93788753446469E+00 -0.00000000000000E+00
 -7.93788635244913E+00  7.93788635244913E+00 -0.00000000000000E+00
  7.93788753446469E+00 -7.93788753446469E+00  0.00000000000000E+00
 Total energy (etotal) [Ha]= -1.78156359683995E+01

[...]

 Difference of energy with previous step (new-old):
           Absolute (Ha)=-2.04934E+00
           Relative     =-1.08774E-01

[...]

 Difference of energy with previous step (new-old):
           Absolute (Ha)= 1.18915E+00
           Relative     = 6.17088E-02

[...]

--- Iteration: (   6/1000) Internal Cycle: (1/1)

---SELF-CONSISTENT-FIELD CONVERGENCE--------------------------------------------

--- !BeginCycle
iteration_state: {dtset: 1, itime: 6, icycle: 1, }
solver: {iscf: 7, nstep: 100, nline: 4, wfoptalg: 0, }
tolerances: {toldfe: 1.00E-08, }
...

     iter   Etot(hartree)      deltaE(h)  residm     vres2
 ETOT  1  -19.921948111884    -1.992E+01 6.316E-08 1.649E+02
 ETOT  2  -19.922036467115    -8.836E-05 1.772E-08 1.466E+01
 ETOT  3  -19.922036935078    -4.680E-07 3.846E-08 4.471E-02
 ETOT  4  -19.922036974747    -3.967E-08 4.116E-09 1.660E-03
 ETOT  5  -19.922036980144    -5.398E-09 1.719E-10 8.228E-05
 ETOT  6  -19.922036980761    -6.162E-10 5.200E-12 2.554E-05

 At SCF step    6, etot is converged :
  for the second time, diff in etot=  6.162E-10 < toldfe=  1.000E-08

[...]

--- !ResultsGS
iteration_state: {dtset: 1, itime: 6, icycle: 1, }
comment   : Summary of ground state results
lattice_vectors:
- [  2.6500000,   4.6000000,   0.0000000, ]
- [ -2.6500000,   4.6000000,   0.0000000, ]
- [  0.0000000,   0.0000000,  30.0000000, ]
lattice_lengths: [   5.30872,    5.30872,   30.00000, ]
lattice_angles: [ 90.000,  90.000,  59.891, ] # degrees, (23, 13, 12)
lattice_volume:   7.3140000E+02
convergence: {deltae: -6.162E-10, res2:  2.554E-05, residm:  5.200E-12, diffor: null, }
etotal    :  -1.99220370E+01
entropy   :   0.00000000E+00
fermie    :   3.46079410E-01
cartesian_stress_tensor: # hartree/bohr^3
- [ -5.71113780E-03,   0.00000000E+00,   0.00000000E+00, ]
- [  0.00000000E+00,  -3.27874962E-04,   0.00000000E+00, ]
- [  0.00000000E+00,   0.00000000E+00,   1.79731632E-07, ]
pressure_GPa:   5.9223E+01
xred      :
- [ -2.5000E-01,   1.2500E+00,   2.5000E-01, Si]
- [  1.2500E+00,  -2.5000E-01,   2.5000E-01,  C]
- [  1.2500E+00,  -2.5000E-01,   7.5000E-01, Si]
- [ -2.5000E-01,   1.2500E+00,   7.5000E-01,  C]
cartesian_forces: # hartree/bohr
- [ -2.05855120E-05,   2.19818588E-22,  -0.00000000E+00, ]
- [  2.05309955E-05,  -3.29865298E-22,  -0.00000000E+00, ]
- [  2.05855120E-05,   1.48456606E-22,  -0.00000000E+00, ]
- [ -2.05309955E-05,  -3.84098966E-23,  -0.00000000E+00, ]
force_length_stats: {min:   2.05309955E-05, max:   2.05855120E-05, mean:   2.05582537E-05, }
...

 Integrated electronic density in atomic spheres:
 Atom  Sphere_radius  Integrated_density
    1        2.00000          2.81023659
    2        2.00000          4.92730396
    3        2.00000          2.81023659
    4        2.00000          4.92730396

---OUTPUT-----------------------------------------------------------------------

 Cartesian coordinates (xcart) [bohr]
 -3.97499482690626E+00  4.60000000000000E+00  7.50000000000000E+00
  3.97499536979606E+00  4.60000000000000E+00  7.50000000000000E+00
  3.97499482690626E+00  4.60000000000000E+00  2.25000000000000E+01
 -3.97499536979606E+00  4.60000000000000E+00  2.25000000000000E+01
 Reduced coordinates (xred)
 -2.49999023944577E-01  1.24999902394458E+00  2.50000000000000E-01
  1.24999912637662E+00 -2.49999126376615E-01  2.50000000000000E-01
  1.24999902394458E+00 -2.49999023944577E-01  7.50000000000000E-01
 -2.49999126376615E-01  1.24999912637661E+00  7.50000000000000E-01
 Cartesian forces (fcart) [Ha/bohr]; max,rms= 2.05855E-05 1.18693E-05 (free atoms)
 -2.05855119509959E-05  2.19818588286921E-22 -0.00000000000000E+00
  2.05309955080259E-05 -3.29865297882466E-22 -0.00000000000000E+00
  2.05855119509959E-05  1.48456606171471E-22 -0.00000000000000E+00
 -2.05309955080259E-05 -3.84098965759254E-23 -0.00000000000000E+00
 Gradient of E wrt nuclear positions in reduced coordinates (gred)
  5.45516066701391E-05 -5.45516066701391E-05 -0.00000000000000E+00
 -5.44071380962686E-05  5.44071380962686E-05 -0.00000000000000E+00
 -5.45516066701391E-05  5.45516066701391E-05 -0.00000000000000E+00
  5.44071380962686E-05 -5.44071380962686E-05  0.00000000000000E+00
 Total energy (etotal) [Ha]= -1.99220369807606E+01

 Difference of energy with previous step (new-old):
           Absolute (Ha)=-1.67312E-04
           Relative     =-8.39838E-06

 At Broyd/MD step   6, gradients are converged :
  max grad (force/stress) = 2.0586E-05 < tolmxf= 5.0000E-05 ha/bohr (free atoms)

 ----iterations are completed or convergence reached----

 Mean square residual over all n,k,spin=   21.002E-13; max=  52.000E-13
 reduced coordinates (array xred) for    4 atoms
      -0.249999023945      1.249999023945      0.250000000000
       1.249999126377     -0.249999126377      0.250000000000
       1.249999023945     -0.249999023945      0.750000000000
      -0.249999126377      1.249999126377      0.750000000000
 rms dE/dt=  4.4482E-05; max dE/dt=  5.4552E-05; dE/dt below (all hartree)
    1       0.000054551607     -0.000054551607      0.000000000000
    2      -0.000054407138      0.000054407138      0.000000000000
    3      -0.000054551607      0.000054551607      0.000000000000
    4       0.000054407138     -0.000054407138      0.000000000000

 cartesian coordinates (angstrom) at end:
    1     -2.10347666666194     2.43421515951400     3.96882906442500
    2      2.10347695394685     2.43421515951400     3.96882906442500
    3      2.10347666666194     2.43421515951400    11.90648719327500
    4     -2.10347695394685     2.43421515951400    11.90648719327500

 cartesian forces (hartree/bohr) at end:
    1     -0.00002058551195     0.00000000000000    -0.00000000000000
    2      0.00002053099551    -0.00000000000000    -0.00000000000000
    3      0.00002058551195     0.00000000000000    -0.00000000000000
    4     -0.00002053099551    -0.00000000000000    -0.00000000000000
 frms,max,avg= 1.1869324E-05 2.0585512E-05   0.000E+00  0.000E+00  0.000E+00 h/b

 cartesian forces (eV/Angstrom) at end:
    1     -0.00105854949639     0.00000000000000    -0.00000000000000
    2      0.00105574614841    -0.00000000000000    -0.00000000000000
    3      0.00105854949639     0.00000000000000    -0.00000000000000
    4     -0.00105574614841    -0.00000000000000    -0.00000000000000
 frms,max,avg= 6.1034512E-04 1.0585495E-03   0.000E+00  0.000E+00  0.000E+00 e/A
 length scales=  1.000000000000  1.000000000000  1.000000000000 bohr
              =  0.529177208590  0.529177208590  0.529177208590 angstroms
 prteigrs : about to open file hBNo_DS1_EIG
 Fermi (or HOMO) energy (hartree) =   0.34608   Average Vxc (hartree)=  -0.20028
 Eigenvalues (hartree) for nkpt=  14  k points:
 kpt#   1, nband=  8, wtk=  0.03125, kpt=  0.0000  0.0000  0.1250 (reduced coord)
  -0.56256   -0.56256   -0.19987   -0.19969   -0.12502   -0.12502    0.06525    0.06525
      occupation numbers for kpt#   1
   2.00000    2.00000    2.00000    2.00000    2.00000    2.00000    2.00000    2.00000
 prteigrs : prtvol=0 or 1, do not print more k-points.

--- !EnergyTerms
iteration_state     : {dtset: 1, itime: 6, icycle: 1, }
comment             : Components of total free energy in Hartree
kinetic             :  1.35214674391018E+01
hartree             :  2.48586760733827E+01
xc                  : -7.94987934979392E+00
Ewald energy        :  7.36852350089632E+00
psp_core            :  5.97503404517149E-01
local_psp           : -5.89762923458903E+01
non_local_psp       :  6.57964297025717E-01
internal            : -1.99220369807605E+01
'-kT*entropy'       : -3.22177675736913E-14
total_energy        : -1.99220369807606E+01
total_energy_eV     : -5.42106195556591E+02
band_energy         : -3.70455468890434E+00
...

 rms coord change=  4.7357E-01   atom, delta coord (reduced):
     1       -0.579999023945      0.579999023945      0.000000000000
     2        0.579999126377     -0.579999126377      0.000000000000
     3        0.579999023945     -0.579999023945      0.000000000000
     4       -0.579999126377      0.579999126377      0.000000000000

 Cartesian components of stress tensor (hartree/bohr^3)
  sigma(1 1)= -5.71113780E-03  sigma(3 2)=  0.00000000E+00
  sigma(2 2)= -3.27874962E-04  sigma(3 1)=  0.00000000E+00
  sigma(3 3)=  1.79731632E-07  sigma(2 1)=  0.00000000E+00

-Cartesian components of stress tensor (GPa)         [Pressure=  5.9223E+01 GPa]
- sigma(1 1)= -1.68027447E+02  sigma(3 2)=  0.00000000E+00
- sigma(2 2)= -9.64641280E+00  sigma(3 1)=  0.00000000E+00
- sigma(3 3)=  5.28788630E-03  sigma(2 1)=  0.00000000E+00

== END DATASET(S) ==============================================================

 -outvars: echo values of variables after computation  --------
            acell      1.0000000000E+00  1.0000000000E+00  1.0000000000E+00 Bohr
              amu      2.80855000E+01  1.20110000E+01
           diemac      1.00000000E+01
           diemix      7.00000000E-01
             ecut      7.50000000E+01 Hartree
           etotal1    -1.9922036981E+01
            fcart1    -2.0585511951E-05  2.1981858829E-22 -0.0000000000E+00
                       2.0530995508E-05 -3.2986529788E-22 -0.0000000000E+00
                       2.0585511951E-05  1.4845660617E-22 -0.0000000000E+00
                      -2.0530995508E-05 -3.8409896576E-23 -0.0000000000E+00
-          fftalg         112
           ionmov           2
              ixc          11
           jdtset        1
              kpt      0.00000000E+00  0.00000000E+00  1.25000000E-01
                       2.50000000E-01  0.00000000E+00  1.25000000E-01
                       5.00000000E-01  0.00000000E+00  1.25000000E-01
                       2.50000000E-01  2.50000000E-01  1.25000000E-01
                       5.00000000E-01  2.50000000E-01  1.25000000E-01
                      -2.50000000E-01  2.50000000E-01  1.25000000E-01
                       5.00000000E-01  5.00000000E-01  1.25000000E-01
                       0.00000000E+00  0.00000000E+00  3.75000000E-01
                       2.50000000E-01  0.00000000E+00  3.75000000E-01
                       5.00000000E-01  0.00000000E+00  3.75000000E-01
                       2.50000000E-01  2.50000000E-01  3.75000000E-01
                       5.00000000E-01  2.50000000E-01  3.75000000E-01
                      -2.50000000E-01  2.50000000E-01  3.75000000E-01
                       5.00000000E-01  5.00000000E-01  3.75000000E-01
         kptrlatt        4    0    0      0    4    0      0    0    4
          kptrlen      2.12000000E+01
P           mkmem          14
            natom           4
            nband           8
           ndtset           1
            ngfft          45      45     240
             nkpt          14
            nstep         100
             nsym           8
            ntime        1000
           ntypat           2
              occ      2.000000  2.000000  2.000000  2.000000  2.000000  2.000000
                       2.000000  2.000000
                       2.000000  2.000000  2.000000  2.000000  2.000000  2.000000
                       2.000000  2.000000
                       2.000000  2.000000  2.000000  2.000000  2.000000  2.000000
                       2.000000  2.000000
                       2.000000  2.000000  2.000000  2.000000  2.000000  2.000000
                       2.000000  2.000000
                       2.000000  2.000000  2.000000  2.000000  2.000000  2.000000
                       2.000000  2.000000
                       2.000000  2.000000  2.000000  2.000000  2.000000  2.000000
                       2.000000  2.000000
                       2.000000  2.000000  2.000000  2.000000  2.000000  2.000000
                       2.000000  2.000000
                       2.000000  2.000000  2.000000  2.000000  2.000000  2.000000
                       2.000000  2.000000
                       2.000000  2.000000  2.000000  2.000000  2.000000  2.000000
                       2.000000  2.000000
                       2.000000  2.000000  2.000000  2.000000  2.000000  2.000000
                       2.000000  2.000000
                       2.000000  2.000000  2.000000  2.000000  2.000000  2.000000
                       2.000000  2.000000
                       2.000000  2.000000  2.000000  2.000000  2.000000  2.000000
                       2.000000  2.000000
                       2.000000  2.000000  2.000000  2.000000  2.000000  2.000000
                       2.000000  2.000000
                       2.000000  2.000000  2.000000  2.000000  2.000000  2.000000
                       2.000000  2.000000
           occopt           3
            rprim      2.6500000000E+00  4.6000000000E+00  0.0000000000E+00
                      -2.6500000000E+00  4.6000000000E+00  0.0000000000E+00
                       0.0000000000E+00  0.0000000000E+00  3.0000000000E+01
           shiftk      0.00000000E+00  0.00000000E+00  5.00000000E-01
          spgroup          63
           strten1    -5.7111377980E-03 -3.2787496196E-04  1.7973163238E-07
                       0.0000000000E+00  0.0000000000E+00  0.0000000000E+00
           symrel      1  0  0   0  1  0   0  0  1      -1  0  0   0 -1  0   0  0 -1
                       0 -1  0  -1  0  0   0  0 -1       0  1  0   1  0  0   0  0  1
                      -1  0  0   0 -1  0   0  0  1       1  0  0   0  1  0   0  0 -1
                       0  1  0   1  0  0   0  0 -1       0 -1  0  -1  0  0   0  0  1
            tnons      0.0000000  0.0000000  0.0000000    -0.0000000 -0.0000000  0.0000000
                      -0.0000000 -0.0000000  0.5000000     0.0000000  0.0000000  0.5000000
                      -0.0000000 -0.0000000  0.5000000     0.0000000  0.0000000  0.5000000
                       0.0000000  0.0000000  0.0000000    -0.0000000 -0.0000000  0.0000000
           toldfe      1.00000000E-08 Hartree
            typat      1  2  1  2
              wtk        0.03125    0.12500    0.06250    0.06250    0.12500    0.06250
                         0.03125    0.03125    0.12500    0.06250    0.06250    0.12500
                         0.06250    0.03125
           xangst     -2.1034766667E+00  2.4342151595E+00  3.9688290644E+00
                       2.1034769539E+00  2.4342151595E+00  3.9688290644E+00
                       2.1034766667E+00  2.4342151595E+00  1.1906487193E+01
                      -2.1034769539E+00  2.4342151595E+00  1.1906487193E+01
            xcart     -3.9749948269E+00  4.6000000000E+00  7.5000000000E+00
                       3.9749953698E+00  4.6000000000E+00  7.5000000000E+00
                       3.9749948269E+00  4.6000000000E+00  2.2500000000E+01
                      -3.9749953698E+00  4.6000000000E+00  2.2500000000E+01
             xred     -2.4999902394E-01  1.2499990239E+00  2.5000000000E-01
                       1.2499991264E+00 -2.4999912638E-01  2.5000000000E-01
                       1.2499990239E+00 -2.4999902394E-01  7.5000000000E-01
                      -2.4999912638E-01  1.2499991264E+00  7.5000000000E-01
            znucl       14.00000    6.00000

 The spacegroup number, the magnetic point group, and/or the number of symmetries
 have changed between the initial recognition based on the input file
 and a postprocessing based on the final acell, rprim, and xred.
 More details in the log file.

- Timing analysis has been suppressed with timopt=0

 Suggested references for the acknowledgment of ABINIT usage.

 Calculation completed.
.Delivered  59 WARNINGs and   4 COMMENTs to log file.