.Version 10.0.5 of ABINIT, released Apr 2024.

 ABINIT is a project of the Universite Catholique de Louvain,
 Corning Inc. and other collaborators, see ~abinit/doc/developers/contributors.txt .
 acknowledgments of the ABINIT effort.

.Starting date : Mon 10 Jun 2024.
- ( at 22h37 )

- input  file    -> Boron_Nitride_BandStructure.abi
- output file    -> Boron_Nitride_BandStructure.abo
- root for input  files -> Boron_Nitride_BandStructurei
- root for output files -> Boron_Nitride_BandStructureo

 DATASET    1 : space group Pm (#  6); Bravais mP (primitive monocl.)
     intxc =       0    ionmov =       0      iscf =       7    lmnmax =       4
     lnmax =       4     mgfft =     192  mpssoang =       2    mqgrid =    9550
     natom =       4  nloc_mem =       1    nspden =       1   nspinor =       1
    nsppol =       1      nsym =       2    n1xccc =    2501    ntypat =       2
    occopt =       1   xclevel =       2
-    mband =           8        mffmem =           1         mkmem =          34
       mpw =       46624          nfft =      829440          nkpt =          34
  Rough estimation (10% accuracy) of disk space for files :

 DATASET    2 : space group Pm (#  6); Bravais mP (primitive monocl.)
     intxc =       0    ionmov =       0      iscf =      -2    lmnmax =       4
     lnmax =       4     mgfft =     192  mpssoang =       2    mqgrid =    9550
     natom =       4  nloc_mem =       1    nspden =       1   nspinor =       1
    nsppol =       1      nsym =       2    n1xccc =    2501    ntypat =       2
    occopt =       1   xclevel =       2
-    mband =           8        mffmem =           1         mkmem =         125
       mpw =       46631          nfft =      829440          nkpt =         125
  Rough estimation (10% accuracy) of disk space for files :

------------- Echo of variables that govern the present computation ------------
-
- outvars: echo of selected default values
-   iomode0 =  0 , fftalg0 =112 , wfoptalg0 =  0
-
- outvars: echo of global parameters not present in the input file
-  max_nthreads =    0
-
 -outvars: echo values of preprocessed input variables --------
            acell      1.0000000000E+00  1.0000000000E+00  1.0000000000E+00 Bohr
              amu      1.08110000E+01  1.40067400E+01
           diemac      1.00000000E+01
             ecut      5.00000000E+01 Hartree
           enunit1          0
           enunit2          1
-          fftalg         112
           getden1          0
           getden2         -1
             iscf1          7
             iscf2         -2
           istwfk1       0    0    0    0    0    0    0    0    0    0
                         0    0    0    0    0    0    4    0    5    0
                         0    0    0    0    0    0    0    0    0    0
                         0    8    0    9
           istwfk2       3    0    0    0    0    0    0    0    0    0
                         2    0    0    0    0    0    0    0    0    0
                         0    0    0    0    0    0    0    0    0    0
                         0    0    0    0    0    0    0    0    0    0
                         0    0    0    0    0    0    0    0    0    0
                       outvar_i_n : Printing only first  50 k-points.
              ixc          11
           jdtset        1    2
              kpt1     1.25000000E-01  0.00000000E+00  0.00000000E+00
                       3.75000000E-01  0.00000000E+00  0.00000000E+00
                       0.00000000E+00  1.25000000E-01  0.00000000E+00
                       2.50000000E-01  1.25000000E-01  0.00000000E+00
                       5.00000000E-01  1.25000000E-01  0.00000000E+00
                      -2.50000000E-01  1.25000000E-01  0.00000000E+00
                       1.25000000E-01  2.50000000E-01  0.00000000E+00
                       3.75000000E-01  2.50000000E-01  0.00000000E+00
                      -3.75000000E-01  2.50000000E-01  0.00000000E+00
                      -1.25000000E-01  2.50000000E-01  0.00000000E+00
                       0.00000000E+00  3.75000000E-01  0.00000000E+00
                       2.50000000E-01  3.75000000E-01  0.00000000E+00
                       5.00000000E-01  3.75000000E-01  0.00000000E+00
                      -2.50000000E-01  3.75000000E-01  0.00000000E+00
                       1.25000000E-01  5.00000000E-01  0.00000000E+00
                       3.75000000E-01  5.00000000E-01  0.00000000E+00
                       0.00000000E+00  0.00000000E+00  5.00000000E-01
                       2.50000000E-01  0.00000000E+00  5.00000000E-01
                       5.00000000E-01  0.00000000E+00  5.00000000E-01
                       1.25000000E-01  1.25000000E-01  5.00000000E-01
                       3.75000000E-01  1.25000000E-01  5.00000000E-01
                      -3.75000000E-01  1.25000000E-01  5.00000000E-01
                      -1.25000000E-01  1.25000000E-01  5.00000000E-01
                       0.00000000E+00  2.50000000E-01  5.00000000E-01
                       2.50000000E-01  2.50000000E-01  5.00000000E-01
                       5.00000000E-01  2.50000000E-01  5.00000000E-01
                      -2.50000000E-01  2.50000000E-01  5.00000000E-01
                       1.25000000E-01  3.75000000E-01  5.00000000E-01
                       3.75000000E-01  3.75000000E-01  5.00000000E-01
                      -3.75000000E-01  3.75000000E-01  5.00000000E-01
                      -1.25000000E-01  3.75000000E-01  5.00000000E-01
                       0.00000000E+00  5.00000000E-01  5.00000000E-01
                       2.50000000E-01  5.00000000E-01  5.00000000E-01
                       5.00000000E-01  5.00000000E-01  5.00000000E-01
              kpt2     5.00000000E-01  0.00000000E+00  0.00000000E+00
                       4.50000000E-01  0.00000000E+00  0.00000000E+00
                       4.00000000E-01  0.00000000E+00  0.00000000E+00
                       3.50000000E-01  0.00000000E+00  0.00000000E+00
                       3.00000000E-01  0.00000000E+00  0.00000000E+00
                       2.50000000E-01  0.00000000E+00  0.00000000E+00
                       2.00000000E-01  0.00000000E+00  0.00000000E+00
                       1.50000000E-01  0.00000000E+00  0.00000000E+00
                       1.00000000E-01  0.00000000E+00  0.00000000E+00
                       5.00000000E-02  0.00000000E+00  0.00000000E+00
                       0.00000000E+00  0.00000000E+00  0.00000000E+00
                       0.00000000E+00  9.61538462E-03  9.61538462E-03
                       0.00000000E+00  1.92307692E-02  1.92307692E-02
                       0.00000000E+00  2.88461538E-02  2.88461538E-02
                       0.00000000E+00  3.84615385E-02  3.84615385E-02
                       0.00000000E+00  4.80769231E-02  4.80769231E-02
                       0.00000000E+00  5.76923077E-02  5.76923077E-02
                       0.00000000E+00  6.73076923E-02  6.73076923E-02
                       0.00000000E+00  7.69230769E-02  7.69230769E-02
                       0.00000000E+00  8.65384615E-02  8.65384615E-02
                       0.00000000E+00  9.61538462E-02  9.61538462E-02
                       0.00000000E+00  1.05769231E-01  1.05769231E-01
                       0.00000000E+00  1.15384615E-01  1.15384615E-01
                       0.00000000E+00  1.25000000E-01  1.25000000E-01
                       0.00000000E+00  1.34615385E-01  1.34615385E-01
                       0.00000000E+00  1.44230769E-01  1.44230769E-01
                       0.00000000E+00  1.53846154E-01  1.53846154E-01
                       0.00000000E+00  1.63461538E-01  1.63461538E-01
                       0.00000000E+00  1.73076923E-01  1.73076923E-01
                       0.00000000E+00  1.82692308E-01  1.82692308E-01
                       0.00000000E+00  1.92307692E-01  1.92307692E-01
                       0.00000000E+00  2.01923077E-01  2.01923077E-01
                       0.00000000E+00  2.11538462E-01  2.11538462E-01
                       0.00000000E+00  2.21153846E-01  2.21153846E-01
                       0.00000000E+00  2.30769231E-01  2.30769231E-01
                       0.00000000E+00  2.40384615E-01  2.40384615E-01
                       0.00000000E+00  2.50000000E-01  2.50000000E-01
                       0.00000000E+00  2.59615385E-01  2.59615385E-01
                       0.00000000E+00  2.69230769E-01  2.69230769E-01
                       0.00000000E+00  2.78846154E-01  2.78846154E-01
                       0.00000000E+00  2.88461538E-01  2.88461538E-01
                       0.00000000E+00  2.98076923E-01  2.98076923E-01
                       0.00000000E+00  3.07692308E-01  3.07692308E-01
                       0.00000000E+00  3.17307692E-01  3.17307692E-01
                       0.00000000E+00  3.26923077E-01  3.26923077E-01
                       0.00000000E+00  3.36538462E-01  3.36538462E-01
                       0.00000000E+00  3.46153846E-01  3.46153846E-01
                       0.00000000E+00  3.55769231E-01  3.55769231E-01
                       0.00000000E+00  3.65384615E-01  3.65384615E-01
                       0.00000000E+00  3.75000000E-01  3.75000000E-01
                       outvar_i_n : Printing only first  50 k-points.
           kptopt1          1
           kptopt2         -3
         kptrlatt        4    4   -1      0    8    0      0    0    2
          kptrlen1     3.47993563E+01
          kptrlen2     3.00000000E+01
P           mkmem1         34
P           mkmem2        125
            natom           4
            nband1          8
            nband2          8
           nbdbuf1          0
           nbdbuf2          2
           ndtset           2
           ndivsm1          0
           ndivsm2         10
            ngfft         144      30     192
             nkpt1         34
             nkpt2        125
            nstep          25
             nsym           2
           ntypat           2
              occ      2.000000  2.000000  2.000000  2.000000  2.000000  2.000000
                       2.000000  0.000000
            rprim      2.2170000000E+01  3.7700000000E+00  0.0000000000E+00
                      -2.1700000000E+00  3.7700000000E+00  0.0000000000E+00
                       0.0000000000E+00  0.0000000000E+00  3.0000000000E+01
           shiftk1    -5.00000000E-01  0.00000000E+00  1.00000000E+00
           shiftk2     5.00000000E-01  5.00000000E-01  5.00000000E-01
          spgroup           6
           symrel      1  0  0   0  1  0   0  0  1       1  0  0   0  1  0   0  0 -1
            tnons      0.0000000  0.0000000  0.0000000     0.0000000  0.0000000  0.5000000
           toldfe1     1.00000000E-08 Hartree
           toldfe2     0.00000000E+00 Hartree
           tolwfr1     0.00000000E+00
           tolwfr2     1.00000000E-12
            typat      1  2  1  1
              wtk1       0.03125    0.03125    0.03125    0.03125    0.03125    0.03125
                         0.03125    0.03125    0.03125    0.03125    0.03125    0.03125
                         0.03125    0.03125    0.03125    0.03125    0.01563    0.03125
[...]
 kpt#  97, nband=  8, wtk=  1.00000, kpt=  0.5484  0.7742  0.7742 (reduced coord)
 -15.42798  -14.38716   -8.61891   -8.53296   -8.33437   -7.34381   -7.23207   -6.42653
 kpt#  98, nband=  8, wtk=  1.00000, kpt=  0.5645  0.7823  0.7823 (reduced coord)
 -15.50283  -14.46230   -8.67515   -8.60744   -8.40751   -7.41756   -7.30351   -6.50438
 kpt#  99, nband=  8, wtk=  1.00000, kpt=  0.5806  0.7903  0.7903 (reduced coord)
 -15.57502  -14.53477   -8.72989   -8.67978   -8.47860   -7.48922   -7.37311   -6.57945
 kpt# 100, nband=  8, wtk=  1.00000, kpt=  0.5968  0.7984  0.7984 (reduced coord)
 -15.64455  -14.60456   -8.78306   -8.74988   -8.54756   -7.55873   -7.44077   -6.65174
 kpt# 101, nband=  8, wtk=  1.00000, kpt=  0.6129  0.8065  0.8065 (reduced coord)
 -15.71140  -14.67166   -8.83458   -8.81769   -8.61432   -7.62600   -7.50636   -6.72124
 kpt# 102, nband=  8, wtk=  1.00000, kpt=  0.6290  0.8145  0.8145 (reduced coord)
 -15.77557  -14.73607   -8.88439   -8.88315   -8.67879   -7.69096   -7.56979   -6.78794
 kpt# 103, nband=  8, wtk=  1.00000, kpt=  0.6452  0.8226  0.8226 (reduced coord)
 -15.83705  -14.79778   -8.94621   -8.93244   -8.74092   -7.75355   -7.63095   -6.85184
 kpt# 104, nband=  8, wtk=  1.00000, kpt=  0.6613  0.8306  0.8306 (reduced coord)
 -15.89583  -14.85678   -9.00681   -8.97868   -8.80064   -7.81371   -7.68976   -6.91294
 kpt# 105, nband=  8, wtk=  1.00000, kpt=  0.6774  0.8387  0.8387 (reduced coord)
 -15.95192  -14.91307   -9.06492   -9.02305   -8.85790   -7.87137   -7.74612   -6.97122
 kpt# 106, nband=  8, wtk=  1.00000, kpt=  0.6935  0.8468  0.8468 (reduced coord)
 -16.00530  -14.96664   -9.12051   -9.06550   -8.91265   -7.92650   -7.79994   -7.02669
 kpt# 107, nband=  8, wtk=  1.00000, kpt=  0.7097  0.8548  0.8548 (reduced coord)
 -16.05597  -15.01749   -9.17352   -9.10601   -8.96484   -7.97903   -7.85118   -7.07934
 kpt# 108, nband=  8, wtk=  1.00000, kpt=  0.7258  0.8629  0.8629 (reduced coord)
 -16.10393  -15.06561   -9.22394   -9.14452   -9.01442   -8.02894   -7.89974   -7.12916
 kpt# 109, nband=  8, wtk=  1.00000, kpt=  0.7419  0.8710  0.8710 (reduced coord)
 -16.14917  -15.11100   -9.27172   -9.18100   -9.06136   -8.07618   -7.94560   -7.17616
 kpt# 110, nband=  8, wtk=  1.00000, kpt=  0.7581  0.8790  0.8790 (reduced coord)
 -16.19169  -15.15366   -9.31683   -9.21543   -9.10563   -8.12071   -7.98869   -7.22032
 kpt# 111, nband=  8, wtk=  1.00000, kpt=  0.7742  0.8871  0.8871 (reduced coord)
 -16.23148  -15.19358   -9.35925   -9.24776   -9.14718   -8.16250   -8.02899   -7.26165
 kpt# 112, nband=  8, wtk=  1.00000, kpt=  0.7903  0.8952  0.8952 (reduced coord)
 -16.26855  -15.23076   -9.39894   -9.27797   -9.18599   -8.20153   -8.06647   -7.30014
 kpt# 113, nband=  8, wtk=  1.00000, kpt=  0.8065  0.9032  0.9032 (reduced coord)
 -16.30288  -15.26519   -9.43587   -9.30604   -9.22203   -8.23776   -8.10111   -7.33579
 kpt# 114, nband=  8, wtk=  1.00000, kpt=  0.8226  0.9113  0.9113 (reduced coord)
 -16.33447  -15.29688   -9.46999   -9.33195   -9.25527   -8.27118   -8.13291   -7.36860
 kpt# 115, nband=  8, wtk=  1.00000, kpt=  0.8387  0.9194  0.9194 (reduced coord)
 -16.36333  -15.32582   -9.50129   -9.35567   -9.28570   -8.30175   -8.16187   -7.39856
 kpt# 116, nband=  8, wtk=  1.00000, kpt=  0.8548  0.9274  0.9274 (reduced coord)
 -16.38945  -15.35201   -9.52973   -9.37718   -9.31328   -8.32947   -8.18800   -7.42567
 kpt# 117, nband=  8, wtk=  1.00000, kpt=  0.8710  0.9355  0.9355 (reduced coord)
 -16.41282  -15.37545   -9.55528   -9.39647   -9.33802   -8.35431   -8.21130   -7.44994
 kpt# 118, nband=  8, wtk=  1.00000, kpt=  0.8871  0.9435  0.9435 (reduced coord)
 -16.43345  -15.39613   -9.57790   -9.41353   -9.35987   -8.37626   -8.23180   -7.47135
 kpt# 119, nband=  8, wtk=  1.00000, kpt=  0.9032  0.9516  0.9516 (reduced coord)
 -16.45133  -15.41406   -9.59757   -9.42834   -9.37885   -8.39531   -8.24950   -7.48991
 kpt# 120, nband=  8, wtk=  1.00000, kpt=  0.9194  0.9597  0.9597 (reduced coord)
 -16.46646  -15.42923   -9.61426   -9.44088   -9.39492   -8.41144   -8.26444   -7.50562
 kpt# 121, nband=  8, wtk=  1.00000, kpt=  0.9355  0.9677  0.9677 (reduced coord)
 -16.47885  -15.44164   -9.62795   -9.45116   -9.40808   -8.42466   -8.27664   -7.51847
 kpt# 122, nband=  8, wtk=  1.00000, kpt=  0.9516  0.9758  0.9758 (reduced coord)
 -16.48848  -15.45130   -9.63862   -9.45916   -9.41833   -8.43494   -8.28610   -7.52847
 kpt# 123, nband=  8, wtk=  1.00000, kpt=  0.9677  0.9839  0.9839 (reduced coord)
 -16.49536  -15.45819   -9.64625   -9.46488   -9.42566   -8.44229   -8.29284   -7.53561
 kpt# 124, nband=  8, wtk=  1.00000, kpt=  0.9839  0.9919  0.9919 (reduced coord)
 -16.49949  -15.46233   -9.65083   -9.46831   -9.43005   -8.44671   -8.29689   -7.53990
 kpt# 125, nband=  8, wtk=  1.00000, kpt=  1.0000  1.0000  1.0000 (reduced coord)
 -16.50087  -15.46371   -9.65236   -9.46946   -9.43152   -8.44818   -8.29823   -7.54133

== END DATASET(S) ==============================================================

 -outvars: echo values of variables after computation  --------
            acell      1.0000000000E+00  1.0000000000E+00  1.0000000000E+00 Bohr
              amu      1.08110000E+01  1.40067400E+01
           diemac      1.00000000E+01
             ecut      5.00000000E+01 Hartree
           enunit1          0
           enunit2          1
           etotal1    -1.8357852582E+01
            fcart1     9.0182302928E-03  5.6808327942E-03 -0.0000000000E+00
                      -9.0867899831E-03 -5.4865699663E-03 -0.0000000000E+00
                      -7.8703094592E-03 -4.8764322417E-03 -0.0000000000E+00
                       7.9388691496E-03  4.6821694139E-03 -0.0000000000E+00
-          fftalg         112
           getden1          0
           getden2         -1
             iscf1          7
             iscf2         -2
           istwfk1       0    0    0    0    0    0    0    0    0    0
                         0    0    0    0    0    0    4    0    5    0
                         0    0    0    0    0    0    0    0    0    0
                         0    8    0    9
           istwfk2       3    0    0    0    0    0    0    0    0    0
                         2    0    0    0    0    0    0    0    0    0
                         0    0    0    0    0    0    0    0    0    0
                         0    0    0    0    0    0    0    0    0    0
                         0    0    0    0    0    0    0    0    0    0
                       outvar_i_n : Printing only first  50 k-points.
              ixc          11
           jdtset        1    2
              kpt1     1.25000000E-01  0.00000000E+00  0.00000000E+00
                       3.75000000E-01  0.00000000E+00  0.00000000E+00
                       0.00000000E+00  1.25000000E-01  0.00000000E+00
                       2.50000000E-01  1.25000000E-01  0.00000000E+00
                       5.00000000E-01  1.25000000E-01  0.00000000E+00
                      -2.50000000E-01  1.25000000E-01  0.00000000E+00
                       1.25000000E-01  2.50000000E-01  0.00000000E+00
                       3.75000000E-01  2.50000000E-01  0.00000000E+00
                      -3.75000000E-01  2.50000000E-01  0.00000000E+00
                      -1.25000000E-01  2.50000000E-01  0.00000000E+00
                       0.00000000E+00  3.75000000E-01  0.00000000E+00
                       2.50000000E-01  3.75000000E-01  0.00000000E+00
                       5.00000000E-01  3.75000000E-01  0.00000000E+00
                      -2.50000000E-01  3.75000000E-01  0.00000000E+00
                       1.25000000E-01  5.00000000E-01  0.00000000E+00
                       3.75000000E-01  5.00000000E-01  0.00000000E+00
                       0.00000000E+00  0.00000000E+00  5.00000000E-01
                       2.50000000E-01  0.00000000E+00  5.00000000E-01
                       5.00000000E-01  0.00000000E+00  5.00000000E-01
                       1.25000000E-01  1.25000000E-01  5.00000000E-01
                       3.75000000E-01  1.25000000E-01  5.00000000E-01
                      -3.75000000E-01  1.25000000E-01  5.00000000E-01
                      -1.25000000E-01  1.25000000E-01  5.00000000E-01
                       0.00000000E+00  2.50000000E-01  5.00000000E-01
                       2.50000000E-01  2.50000000E-01  5.00000000E-01
                       5.00000000E-01  2.50000000E-01  5.00000000E-01
                      -2.50000000E-01  2.50000000E-01  5.00000000E-01
                       1.25000000E-01  3.75000000E-01  5.00000000E-01
                       3.75000000E-01  3.75000000E-01  5.00000000E-01
                      -3.75000000E-01  3.75000000E-01  5.00000000E-01
                      -1.25000000E-01  3.75000000E-01  5.00000000E-01
                       0.00000000E+00  5.00000000E-01  5.00000000E-01
                       2.50000000E-01  5.00000000E-01  5.00000000E-01
                       5.00000000E-01  5.00000000E-01  5.00000000E-01
              kpt2     5.00000000E-01  0.00000000E+00  0.00000000E+00
                       4.50000000E-01  0.00000000E+00  0.00000000E+00
                       4.00000000E-01  0.00000000E+00  0.00000000E+00
                       3.50000000E-01  0.00000000E+00  0.00000000E+00
                       3.00000000E-01  0.00000000E+00  0.00000000E+00
                       2.50000000E-01  0.00000000E+00  0.00000000E+00
                       2.00000000E-01  0.00000000E+00  0.00000000E+00
                       1.50000000E-01  0.00000000E+00  0.00000000E+00
                       1.00000000E-01  0.00000000E+00  0.00000000E+00
                       5.00000000E-02  0.00000000E+00  0.00000000E+00
                       0.00000000E+00  0.00000000E+00  0.00000000E+00
                       0.00000000E+00  9.61538462E-03  9.61538462E-03
                       0.00000000E+00  1.92307692E-02  1.92307692E-02
                       0.00000000E+00  2.88461538E-02  2.88461538E-02
                       0.00000000E+00  3.84615385E-02  3.84615385E-02
                       0.00000000E+00  4.80769231E-02  4.80769231E-02
                       0.00000000E+00  5.76923077E-02  5.76923077E-02
                       0.00000000E+00  6.73076923E-02  6.73076923E-02
                       0.00000000E+00  7.69230769E-02  7.69230769E-02
                       0.00000000E+00  8.65384615E-02  8.65384615E-02
                       0.00000000E+00  9.61538462E-02  9.61538462E-02
                       0.00000000E+00  1.05769231E-01  1.05769231E-01
                       0.00000000E+00  1.15384615E-01  1.15384615E-01
                       0.00000000E+00  1.25000000E-01  1.25000000E-01
                       0.00000000E+00  1.34615385E-01  1.34615385E-01
                       0.00000000E+00  1.44230769E-01  1.44230769E-01
                       0.00000000E+00  1.53846154E-01  1.53846154E-01
                       0.00000000E+00  1.63461538E-01  1.63461538E-01
                       0.00000000E+00  1.73076923E-01  1.73076923E-01
                       0.00000000E+00  1.82692308E-01  1.82692308E-01
                       0.00000000E+00  1.92307692E-01  1.92307692E-01
                       0.00000000E+00  2.01923077E-01  2.01923077E-01
                       0.00000000E+00  2.11538462E-01  2.11538462E-01
                       0.00000000E+00  2.21153846E-01  2.21153846E-01
                       0.00000000E+00  2.30769231E-01  2.30769231E-01
                       0.00000000E+00  2.40384615E-01  2.40384615E-01
                       0.00000000E+00  2.50000000E-01  2.50000000E-01
                       0.00000000E+00  2.59615385E-01  2.59615385E-01
                       0.00000000E+00  2.69230769E-01  2.69230769E-01
                       0.00000000E+00  2.78846154E-01  2.78846154E-01
                       0.00000000E+00  2.88461538E-01  2.88461538E-01
                       0.00000000E+00  2.98076923E-01  2.98076923E-01
                       0.00000000E+00  3.07692308E-01  3.07692308E-01
                       0.00000000E+00  3.17307692E-01  3.17307692E-01
                       0.00000000E+00  3.26923077E-01  3.26923077E-01
                       0.00000000E+00  3.36538462E-01  3.36538462E-01
                       0.00000000E+00  3.46153846E-01  3.46153846E-01
                       0.00000000E+00  3.55769231E-01  3.55769231E-01
                       0.00000000E+00  3.65384615E-01  3.65384615E-01
                       0.00000000E+00  3.75000000E-01  3.75000000E-01
                       outvar_i_n : Printing only first  50 k-points.
           kptopt1          1
           kptopt2         -3
         kptrlatt        4    4   -1      0    8    0      0    0    2
          kptrlen1     3.47993563E+01
          kptrlen2     3.00000000E+01
P           mkmem1         34
P           mkmem2        125
            natom           4
            nband1          8
            nband2          8
           nbdbuf1          0
           nbdbuf2          2
           ndtset           2
           ndivsm1          0
           ndivsm2         10
            ngfft         144      30     192
             nkpt1         34
             nkpt2        125
            nstep          25
             nsym           2
           ntypat           2
              occ      2.000000  2.000000  2.000000  2.000000  2.000000  2.000000
                       2.000000  0.000000
            rprim      2.2170000000E+01  3.7700000000E+00  0.0000000000E+00
                      -2.1700000000E+00  3.7700000000E+00  0.0000000000E+00
                       0.0000000000E+00  0.0000000000E+00  3.0000000000E+01
           shiftk1    -5.00000000E-01  0.00000000E+00  1.00000000E+00
           shiftk2     5.00000000E-01  5.00000000E-01  5.00000000E-01
          spgroup           6
           strten1     4.9879810307E-05  1.2973904315E-04  1.9772460225E-06
                       0.0000000000E+00  0.0000000000E+00 -6.7208368132E-05
           symrel      1  0  0   0  1  0   0  0  1       1  0  0   0  1  0   0  0 -1
            tnons      0.0000000  0.0000000  0.0000000     0.0000000  0.0000000  0.5000000
           toldfe1     1.00000000E-08 Hartree
           toldfe2     0.00000000E+00 Hartree
           tolwfr1     0.00000000E+00
           tolwfr2     1.00000000E-12
            typat      1  2  1  1
              wtk1       0.03125    0.03125    0.03125    0.03125    0.03125    0.03125
                         0.03125    0.03125    0.03125    0.03125    0.03125    0.03125
                         0.03125    0.03125    0.03125    0.03125    0.01563    0.03125
                         0.01563    0.03125    0.03125    0.03125    0.03125    0.03125
                         0.03125    0.03125    0.03125    0.03125    0.03125    0.03125
                         0.03125    0.01563    0.03125    0.01563
              wtk2       1.00000    1.00000    1.00000    1.00000    1.00000    1.00000
                         1.00000    1.00000    1.00000    1.00000    1.00000    1.00000
                         1.00000    1.00000    1.00000    1.00000    1.00000    1.00000
                         1.00000    1.00000    1.00000    1.00000    1.00000    1.00000
                         1.00000    1.00000    1.00000    1.00000    1.00000    1.00000
                         1.00000    1.00000    1.00000    1.00000    1.00000    1.00000
                         1.00000    1.00000    1.00000    1.00000    1.00000    1.00000
                         1.00000    1.00000    1.00000    1.00000    1.00000    1.00000
                         1.00000    1.00000
                       outvars : Printing only first  50 k-points.
           xangst      3.1021426322E+00  1.9949980764E+00  3.9688290644E+00
                       7.4814015396E+00  1.9949980764E+00  3.9688290644E+00
                       7.4814015396E+00  1.9949980764E+00  1.1906487193E+01
                       3.1021426322E+00  1.9949980764E+00  1.1906487193E+01
            xcart      5.8622000000E+00  3.7700000000E+00  7.5000000000E+00
                       1.4137800000E+01  3.7700000000E+00  7.5000000000E+00
                       1.4137800000E+01  3.7700000000E+00  2.2500000000E+01
                       5.8622000000E+00  3.7700000000E+00  2.2500000000E+01
             xred      3.3000000000E-01  6.7000000000E-01  2.5000000000E-01
                       6.7000000000E-01  3.3000000000E-01  2.5000000000E-01
                       6.7000000000E-01  3.3000000000E-01  7.5000000000E-01
                       3.3000000000E-01  6.7000000000E-01  7.5000000000E-01
            znucl        5.00000    7.00000

- Timing analysis has been suppressed with timopt=0

 Suggested references for the acknowledgment of ABINIT usage.

 Calculation completed.
.Delivered   3 WARNINGs and   5 COMMENTs to log file.