.Version 10.0.5 of ABINIT, released Apr 2024.

 ABINIT is a project of the Universite Catholique de Louvain,
 Corning Inc. and other collaborators, see ~abinit/doc/developers/contributors.txt .
 acknowledgments of the ABINIT effort.

.Starting date : Mon 10 Jun 2024.
- ( at 17h13 )

- input  file    -> Boron_Nitride_Output.abi
- output file    -> Boron_Nitride_Output.abo
- root for input  files -> Boron_Nitride_Outputi
- root for output files -> Boron_Nitride_Outputo

 DATASET    1 : space group Cm c m (# 63); Bravais oC (1-face-center ortho.)
     intxc =       0    ionmov =       2      iscf =       7    lmnmax =       4
     lnmax =       4     mgfft =     240  mpssoang =       2    mqgrid =   11696
     natom =       4  nloc_mem =       1    nspden =       1   nspinor =       1
    nsppol =       1      nsym =       8    n1xccc =    2501    ntypat =       2
    occopt =       3   xclevel =       2
-    mband =           8        mffmem =           1         mkmem =           7
       mpw =       15372          nfft =      311040          nkpt =           7
  Rough estimation (10% accuracy) of disk space for files :

------------- Echo of variables that govern the present computation ------------
-
- outvars: echo of selected default values
-   iomode0 =  0 , fftalg0 =112 , wfoptalg0 =  0
-
- outvars: echo of global parameters not present in the input file
-  max_nthreads =    0
-
 -outvars: echo values of preprocessed input variables --------
            acell      1.0000000000E+00  1.0000000000E+00  1.0000000000E+00 Bohr
              amu      1.08110000E+01  1.40067400E+01
           diemac      1.00000000E+01
           diemix      7.00000000E-01
             ecut      7.50000000E+01 Hartree
-          fftalg         112
           ionmov           2
           istwfk        1    0    1    0    0    0    1
              ixc          11
           jdtset        1
              kpt      0.00000000E+00  0.00000000E+00  5.00000000E-01
                       2.50000000E-01  0.00000000E+00  5.00000000E-01
                       5.00000000E-01  0.00000000E+00  5.00000000E-01
                       2.50000000E-01  2.50000000E-01  5.00000000E-01
                       5.00000000E-01  2.50000000E-01  5.00000000E-01
                      -2.50000000E-01  2.50000000E-01  5.00000000E-01
                       5.00000000E-01  5.00000000E-01  5.00000000E-01
         kptrlatt        4    0    0      0    4    0      0    0    1
          kptrlen      1.73600000E+01
P           mkmem           7
            natom           4
            nband           8
           ndtset           1
            ngfft          36      36     240
             nkpt           7
            nstep         100
             nsym           8
            ntime        1000
           ntypat           2
              occ      2.000000  2.000000  2.000000  2.000000  2.000000  2.000000
                       2.000000  2.000000
                       2.000000  2.000000  2.000000  2.000000  2.000000  2.000000
                       2.000000  2.000000
                       2.000000  2.000000  2.000000  2.000000  2.000000  2.000000
                       2.000000  2.000000
                       2.000000  2.000000  2.000000  2.000000  2.000000  2.000000
                       2.000000  2.000000
                       2.000000  2.000000  2.000000  2.000000  2.000000  2.000000
                       2.000000  2.000000
                       2.000000  2.000000  2.000000  2.000000  2.000000  2.000000
                       2.000000  2.000000
                       2.000000  2.000000  2.000000  2.000000  2.000000  2.000000
                       2.000000  2.000000
           occopt           3
            rprim      2.1700000000E+00  3.7700000000E+00  0.0000000000E+00
                      -2.1700000000E+00  3.7700000000E+00  0.0000000000E+00
                       0.0000000000E+00  0.0000000000E+00  3.0000000000E+01
           shiftk      0.00000000E+00  0.00000000E+00  5.00000000E-01
          spgroup          63
           symrel      1  0  0   0  1  0   0  0  1      -1  0  0   0 -1  0   0  0 -1
                       0 -1  0  -1  0  0   0  0 -1       0  1  0   1  0  0   0  0  1
                      -1  0  0   0 -1  0   0  0  1       1  0  0   0  1  0   0  0 -1
                       0  1  0   1  0  0   0  0 -1       0 -1  0  -1  0  0   0  0  1
            tnons      0.0000000  0.0000000  0.0000000     0.0000000  0.0000000  0.0000000
                       0.0000000  0.0000000  0.5000000     0.0000000 -0.0000000  0.5000000
                       0.0000000  0.0000000  0.5000000     0.0000000  0.0000000  0.5000000
                       0.0000000 -0.0000000  0.0000000     0.0000000  0.0000000  0.0000000
           toldfe      1.00000000E-08 Hartree
            typat      1  2  1  2
              wtk        0.06250    0.25000    0.12500    0.12500    0.25000    0.12500
                         0.06250
           xangst     -3.9042694450E-01  1.9949980764E+00  3.9688290644E+00
                       3.9042694450E-01  1.9949980764E+00  3.9688290644E+00
                       3.9042694450E-01  1.9949980764E+00  1.1906487193E+01
                      -3.9042694450E-01  1.9949980764E+00  1.1906487193E+01
            xcart     -7.3780000000E-01  3.7700000000E+00  7.5000000000E+00
                       7.3780000000E-01  3.7700000000E+00  7.5000000000E+00
                       7.3780000000E-01  3.7700000000E+00  2.2500000000E+01
                      -7.3780000000E-01  3.7700000000E+00  2.2500000000E+01
             xred      3.3000000000E-01  6.7000000000E-01  2.5000000000E-01
                       6.7000000000E-01  3.3000000000E-01  2.5000000000E-01
                       6.7000000000E-01  3.3000000000E-01  7.5000000000E-01
                       3.3000000000E-01  6.7000000000E-01  7.5000000000E-01
            znucl        5.00000    7.00000

 chkinp: Checking input parameters for consistency, jdtset=   1.

== DATASET  1 ==================================================================
-   mpi_nproc: 1, omp_nthreads: -1 (-1 if OMP is not activated)

--- !DatasetInfo
iteration_state: {dtset: 1, }
dimensions: {natom: 4, nkpt: 7, mband: 8, nsppol: 1, nspinor: 1, nspden: 1, mpw: 15372, }
cutoff_energies: {ecut:  75.0, pawecutdg:  -1.0, }
electrons: {nelect:   1.60000000E+01, charge:   0.00000000E+00, occopt:   3.00000000E+00, tsmear:   1.00000000E-02, }
meta: {optdriver: 0, ionmov: 2, optcell: 0, iscf: 7, paral_kgb: 0, }
...

 Real(R)+Recip(G) space primitive vectors, cartesian coordinates (Bohr,Bohr^-1):
 R(1)=  2.1700000  3.7700000  0.0000000  G(1)=  0.2304147  0.1326260  0.0000000
 R(2)= -2.1700000  3.7700000  0.0000000  G(2)= -0.2304147  0.1326260  0.0000000
 R(3)=  0.0000000  0.0000000 30.0000000  G(3)=  0.0000000  0.0000000  0.0333333
 Unit cell volume ucvol=  4.9085400E+02 bohr^3
 Angles (23,13,12)=  9.00000000E+01  9.00000000E+01  5.98491875E+01 degrees

 getcut: wavevector=  0.0000  0.0000  0.0000  ngfft=  36  36 240
         ecut(hartree)=     75.000   => boxcut(ratio)=   2.05208

--- Pseudopotential description ------------------------------------------------
- pspini: atom type   1  psp file is /home/hrishi/abinit-10.0.5/Pseudopotentials/B.psp8
- pspatm: opening atomic psp file    /home/hrishi/abinit-10.0.5/Pseudopotentials/B.psp8
- B     ONCVPSP-3.2.3.1  r_core=   1.20849   1.20849
-  5.00000   3.00000    170503                znucl, zion, pspdat
    8   11    1    4       600   0.00000      pspcod,pspxc,lmax,lloc,mmax,r2well
    5.99000000000000    2.90000000000000    0.00000000000000   rchrg,fchrg,qchrg
     nproj     2     2
     extension_switch     1
  pspatm : epsatm=    3.38844677
         --- l  ekb(1:nproj) -->
             0    8.382104    1.234201
             1   -3.719492   -0.867526
 pspatm: atomic psp has been read  and splines computed

- pspini: atom type   2  psp file is /home/hrishi/abinit-10.0.5/Pseudopotentials/N.psp8
- pspatm: opening atomic psp file    /home/hrishi/abinit-10.0.5/Pseudopotentials/N.psp8
- N     ONCVPSP-3.2.3.1  r_core=   1.20551   1.35824
-  7.00000   5.00000    170503                znucl, zion, pspdat
    8   11    1    4       600   0.00000      pspcod,pspxc,lmax,lloc,mmax,r2well
    5.99000000000000    4.00000000000000    0.00000000000000   rchrg,fchrg,qchrg
     nproj     2     2
     extension_switch     1
  pspatm : epsatm=    5.20978323
         --- l  ekb(1:nproj) -->
             0    7.494509    0.636305
             1   -4.293905   -1.006988
 pspatm: atomic psp has been read  and splines computed

   2.75143360E+02                                ecore*ucvol(ha*bohr**3)

_setup2: Arith. and geom. avg. npw (full set) are   15226.750   15226.625

=== [ionmov= 2] Broyden-Fletcher-Goldfard-Shanno method (forces)

--- Iteration: (   1/1000) Internal Cycle: (1/1)

---SELF-CONSISTENT-FIELD CONVERGENCE--------------------------------------------

--- !BeginCycle
iteration_state: {dtset: 1, itime: 1, icycle: 1, }
solver: {iscf: 7, nstep: 100, nline: 4, wfoptalg: 0, }
tolerances: {toldfe: 1.00E-08, }
...

     iter   Etot(hartree)      deltaE(h)  residm     vres2
 ETOT  1  -23.967142984206    -2.397E+01 3.648E-01 1.727E+04
 ETOT  2  -24.714826430243    -7.477E-01 5.715E-04 2.625E+03
 ETOT  3  -24.723432426704    -8.606E-03 1.218E-04 1.527E+03
 ETOT  4  -24.727496905606    -4.064E-03 1.152E-05 5.584E+02
 ETOT  5  -24.728025958261    -5.291E-04 1.848E-06 2.428E+02
 ETOT  6  -24.728151531709    -1.256E-04 2.897E-07 8.046E+01
 ETOT  7  -24.728167646414    -1.611E-05 5.901E-08 2.031E+01
 ETOT  8  -24.728170420632    -2.774E-06 1.164E-08 3.273E+00
 ETOT  9  -24.728170733695    -3.131E-07 1.730E-09 1.242E-01
 ETOT 10  -24.728170755616    -2.192E-08 2.813E-10 1.594E-02
 ETOT 11  -24.728170761252    -5.636E-09 3.785E-11 4.239E-04
 ETOT 12  -24.728170761797    -5.447E-10 7.681E-12 3.995E-05

 At SCF step   12, etot is converged :
  for the second time, diff in etot=  5.447E-10 < toldfe=  1.000E-08

 Cartesian components of stress tensor (hartree/bohr^3)
  sigma(1 1)= -1.82451559E-02  sigma(3 2)=  0.00000000E+00
  sigma(2 2)= -1.89743740E-03  sigma(3 1)=  0.00000000E+00
  sigma(3 3)=  2.65465544E-07  sigma(2 1)=  0.00000000E+00

--- !ResultsGS
iteration_state: {dtset: 1, itime: 1, icycle: 1, }
comment   : Summary of ground state results
lattice_vectors:
- [  2.1700000,   3.7700000,   0.0000000, ]
- [ -2.1700000,   3.7700000,   0.0000000, ]
- [  0.0000000,   0.0000000,  30.0000000, ]
lattice_lengths: [   4.34992,    4.34992,   30.00000, ]
lattice_angles: [ 90.000,  90.000,  59.849, ] # degrees, (23, 13, 12)
lattice_volume:   4.9085400E+02
convergence: {deltae: -5.447E-10, res2:  3.995E-05, residm:  7.681E-12, diffor: null, }
etotal    :  -2.47281708E+01
entropy   :   0.00000000E+00
fermie    :   2.12580237E-01
cartesian_stress_tensor: # hartree/bohr^3
- [ -1.82451559E-02,   0.00000000E+00,   0.00000000E+00, ]
- [  0.00000000E+00,  -1.89743740E-03,   0.00000000E+00, ]
- [  0.00000000E+00,   0.00000000E+00,   2.65465544E-07, ]
pressure_GPa:   1.9754E+02
xred      :
- [  3.3000E-01,   6.7000E-01,   2.5000E-01,  B]
- [  6.7000E-01,   3.3000E-01,   2.5000E-01,  N]
- [  6.7000E-01,   3.3000E-01,   7.5000E-01,  B]
- [  3.3000E-01,   6.7000E-01,   7.5000E-01,  N]
cartesian_forces: # hartree/bohr
- [ -3.11251226E+00,  -6.59094785E-17,  -0.00000000E+00, ]
- [  3.11251215E+00,  -3.46584725E-17,  -0.00000000E+00, ]
- [  3.11251226E+00,   1.80318403E-16,  -0.00000000E+00, ]
- [ -3.11251215E+00,  -7.97504519E-17,  -0.00000000E+00, ]
force_length_stats: {min:   3.11251215E+00, max:   3.11251226E+00, mean:   3.11251221E+00, }
...

 Integrated electronic density in atomic spheres:
 Atom  Sphere_radius  Integrated_density
    1        2.00000          5.71817432
    2        2.00000          6.50579658
    3        2.00000          5.71817432
    4        2.00000          6.50579658

---OUTPUT-----------------------------------------------------------------------

 Cartesian coordinates (xcart) [bohr]
 -7.37800000000000E-01  3.77000000000000E+00  7.50000000000000E+00
  7.37800000000000E-01  3.77000000000000E+00  7.50000000000000E+00
  7.37800000000000E-01  3.77000000000000E+00  2.25000000000000E+01
 -7.37800000000000E-01  3.77000000000000E+00  2.25000000000000E+01
 Reduced coordinates (xred)
  3.30000000000000E-01  6.70000000000000E-01  2.50000000000000E-01
  6.70000000000000E-01  3.30000000000000E-01  2.50000000000000E-01
  6.70000000000000E-01  3.30000000000000E-01  7.50000000000000E-01
  3.30000000000000E-01  6.70000000000000E-01  7.50000000000000E-01
 Cartesian forces (fcart) [Ha/bohr]; max,rms= 3.11251E+00 1.79701E+00 (free atoms)
 -3.11251226363890E+00 -6.59094785051394E-17 -0.00000000000000E+00
  3.11251214863540E+00 -3.46584724866022E-17 -0.00000000000000E+00
  3.11251226363890E+00  1.80318402926061E-16 -0.00000000000000E+00
 -3.11251214863540E+00 -7.97504519343191E-17 -0.00000000000000E+00
 Gradient of E wrt nuclear positions in reduced coordinates (gred)
  6.75415161209642E+00 -6.75415161209642E+00  0.00000000000000E+00
 -6.75415136253882E+00  6.75415136253882E+00 -0.00000000000000E+00
 -6.75415161209642E+00  6.75415161209642E+00 -0.00000000000000E+00
  6.75415136253882E+00 -6.75415136253882E+00  0.00000000000000E+00
 Total energy (etotal) [Ha]= -2.47281707617967E+01

[...]

 scprqt:  WARNING -
  nstep=  100 was not enough SCF cycles to converge;
  maximum energy difference=  3.000E-08 exceeds toldfe=  1.000E-08

[...]

 Difference of energy with previous step (new-old):
           Absolute (Ha)= 6.47304E+00
           Relative     = 3.01188E-01

[...]

 Difference of energy with previous step (new-old):
           Absolute (Ha)=-6.70032E+00
           Relative     =-3.10124E-01

[...]

 Difference of energy with previous step (new-old):
           Absolute (Ha)= 2.50561E+00
           Relative     = 1.05710E-01

[...]

--- Iteration: (   9/1000) Internal Cycle: (1/1)

---SELF-CONSISTENT-FIELD CONVERGENCE--------------------------------------------

--- !BeginCycle
iteration_state: {dtset: 1, itime: 9, icycle: 1, }
solver: {iscf: 7, nstep: 100, nline: 4, wfoptalg: 0, }
tolerances: {toldfe: 1.00E-08, }
...

     iter   Etot(hartree)      deltaE(h)  residm     vres2
 ETOT  1  -26.361155394359    -2.636E+01 7.259E-11 2.903E+01
 ETOT  2  -26.361155442447    -4.809E-08 8.994E-12 2.897E+00
 ETOT  3  -26.361155443268    -8.205E-10 1.490E-10 4.264E-02
 ETOT  4  -26.361155443322    -5.448E-11 1.063E-11 1.754E-03

 At SCF step    4, etot is converged :
  for the second time, diff in etot=  5.448E-11 < toldfe=  1.000E-08

[...]

--- !ResultsGS
iteration_state: {dtset: 1, itime: 9, icycle: 1, }
comment   : Summary of ground state results
lattice_vectors:
- [  2.1700000,   3.7700000,   0.0000000, ]
- [ -2.1700000,   3.7700000,   0.0000000, ]
- [  0.0000000,   0.0000000,  30.0000000, ]
lattice_lengths: [   4.34992,    4.34992,   30.00000, ]
lattice_angles: [ 90.000,  90.000,  59.849, ] # degrees, (23, 13, 12)
lattice_volume:   4.9085400E+02
convergence: {deltae: -5.448E-11, res2:  1.754E-03, residm:  1.063E-11, diffor: null, }
etotal    :  -2.63611554E+01
entropy   :   0.00000000E+00
fermie    :   3.12002443E-01
cartesian_stress_tensor: # hartree/bohr^3
- [ -5.98716179E-03,   0.00000000E+00,   0.00000000E+00, ]
- [  0.00000000E+00,  -2.03839927E-03,   0.00000000E+00, ]
- [  0.00000000E+00,   0.00000000E+00,   2.27754600E-07, ]
pressure_GPa:   7.8704E+01
xred      :
- [  2.5000E-01,   7.5000E-01,   2.5000E-01,  B]
- [  7.5000E-01,   2.5000E-01,   2.5000E-01,  N]
- [  7.5000E-01,   2.5000E-01,   7.5000E-01,  B]
- [  2.5000E-01,   7.5000E-01,   7.5000E-01,  N]
cartesian_forces: # hartree/bohr
- [  9.81835893E-06,   3.65427654E-22,  -0.00000000E+00, ]
- [ -9.62747926E-06,  -5.67264242E-22,  -0.00000000E+00, ]
- [ -9.81835893E-06,   7.19201405E-22,  -0.00000000E+00, ]
- [  9.62747926E-06,  -5.17364817E-22,  -0.00000000E+00, ]
force_length_stats: {min:   9.62747926E-06, max:   9.81835893E-06, mean:   9.72291910E-06, }
...

 Integrated electronic density in atomic spheres:
 Atom  Sphere_radius  Integrated_density
    1        2.00000          4.96137346
    2        2.00000          6.34809708
    3        2.00000          4.96137346
    4        2.00000          6.34809708

---OUTPUT-----------------------------------------------------------------------

 Cartesian coordinates (xcart) [bohr]
 -1.08500051331260E+00  3.77000000000000E+00  7.50000000000000E+00
  1.08500202744880E+00  3.77000000000000E+00  7.50000000000000E+00
  1.08500051331260E+00  3.77000000000000E+00  2.25000000000000E+01
 -1.08500202744880E+00  3.77000000000000E+00  2.25000000000000E+01
 Reduced coordinates (xred)
  2.49999881725207E-01  7.50000118274793E-01  2.50000000000000E-01
  7.50000467154101E-01  2.49999532845899E-01  2.50000000000000E-01
  7.50000118274793E-01  2.49999881725207E-01  7.50000000000000E-01
  2.49999532845899E-01  7.50000467154101E-01  7.50000000000000E-01
 Cartesian forces (fcart) [Ha/bohr]; max,rms= 9.81836E-06 5.61380E-06 (free atoms)
  9.81835893078842E-06  3.65427654328003E-22 -0.00000000000000E+00
 -9.62747925995582E-06 -5.67264241881540E-22 -0.00000000000000E+00
 -9.81835893078842E-06  7.19201404788743E-22 -0.00000000000000E+00
  9.62747925995582E-06 -5.17364817235207E-22 -0.00000000000000E+00
 Gradient of E wrt nuclear positions in reduced coordinates (gred)
 -2.13058388798109E-05  2.13058388798109E-05 -0.00000000000000E+00
  2.08916299941041E-05 -2.08916299941041E-05  0.00000000000000E+00
  2.13058388798109E-05 -2.13058388798109E-05 -0.00000000000000E+00
 -2.08916299941041E-05  2.08916299941041E-05 -0.00000000000000E+00
 Total energy (etotal) [Ha]= -2.63611554433223E+01

 Difference of energy with previous step (new-old):
           Absolute (Ha)=-8.24930E-08
           Relative     =-3.12934E-09

 At Broyd/MD step   9, gradients are converged :
  max grad (force/stress) = 9.8184E-06 < tolmxf= 5.0000E-05 ha/bohr (free atoms)

 ----iterations are completed or convergence reached----

 Mean square residual over all n,k,spin=   50.120E-13; max=  10.633E-12
 reduced coordinates (array xred) for    4 atoms
       0.249999881725      0.750000118275      0.250000000000
       0.750000467154      0.249999532846      0.250000000000
       0.750000118275      0.249999881725      0.750000000000
       0.249999532846      0.750000467154      0.750000000000
 rms dE/dt=  1.7228E-05; max dE/dt=  2.1306E-05; dE/dt below (all hartree)
    1      -0.000021305839      0.000021305839      0.000000000000
    2       0.000020891630     -0.000020891630      0.000000000000
    3       0.000021305839     -0.000021305839      0.000000000000
    4      -0.000020891630      0.000020891630      0.000000000000

 cartesian coordinates (angstrom) at end:
    1     -0.57415754295348     1.99499807638430     3.96882906442500
    2      0.57415834419985     1.99499807638430     3.96882906442500
    3      0.57415754295348     1.99499807638430    11.90648719327500
    4     -0.57415834419985     1.99499807638430    11.90648719327500

 cartesian forces (hartree/bohr) at end:
    1      0.00000981835893     0.00000000000000    -0.00000000000000
    2     -0.00000962747926    -0.00000000000000    -0.00000000000000
    3     -0.00000981835893     0.00000000000000    -0.00000000000000
    4      0.00000962747926    -0.00000000000000    -0.00000000000000
 frms,max,avg= 5.6138004E-06 9.8183589E-06   0.000E+00  0.000E+00  0.000E+00 h/b

 cartesian forces (eV/Angstrom) at end:
    1      0.00050488027338     0.00000000000000    -0.00000000000000
    2     -0.00049506484689    -0.00000000000000    -0.00000000000000
    3     -0.00050488027338     0.00000000000000    -0.00000000000000
    4      0.00049506484689    -0.00000000000000    -0.00000000000000
 frms,max,avg= 2.8867320E-04 5.0488027E-04   0.000E+00  0.000E+00  0.000E+00 e/A
 length scales=  1.000000000000  1.000000000000  1.000000000000 bohr
              =  0.529177208590  0.529177208590  0.529177208590 angstroms
 prteigrs : about to open file Boron_Nitride_Outputo_DS1_EIG
 Fermi (or HOMO) energy (hartree) =   0.31200   Average Vxc (hartree)=  -0.19660
 Eigenvalues (hartree) for nkpt=   7  k points:
 kpt#   1, nband=  8, wtk=  0.06250, kpt=  0.0000  0.0000  0.5000 (reduced coord)
  -0.74527   -0.74527   -0.32020   -0.32020   -0.30831   -0.30831    0.03354    0.03354
      occupation numbers for kpt#   1
   2.00000    2.00000    2.00000    2.00000    2.00000    2.00000    2.00000    2.00000
 prteigrs : prtvol=0 or 1, do not print more k-points.

--- !EnergyTerms
iteration_state     : {dtset: 1, itime: 9, icycle: 1, }
comment             : Components of total free energy in Hartree
kinetic             :  2.10524830967266E+01
hartree             :  4.16419048298842E+01
xc                  : -9.19074944580078E+00
Ewald energy        :  1.88157368581303E+01
psp_core            :  5.60540119537674E-01
local_psp           : -9.67936979650345E+01
non_local_psp       : -2.44737293676582E+00
internal            : -2.63611554433223E+01
'-kT*entropy'       : -4.40593893500223E-14
total_energy        : -2.63611554433223E+01
total_energy_eV     : -7.17323519761372E+02
band_energy         : -5.37641442604232E+00
...

 rms coord change=  6.5320E-02   atom, delta coord (reduced):
     1       -0.080000118275      0.080000118275      0.000000000000
     2        0.080000467154     -0.080000467154      0.000000000000
     3        0.080000118275     -0.080000118275      0.000000000000
     4       -0.080000467154      0.080000467154      0.000000000000

 Cartesian components of stress tensor (hartree/bohr^3)
  sigma(1 1)= -5.98716179E-03  sigma(3 2)=  0.00000000E+00
  sigma(2 2)= -2.03839927E-03  sigma(3 1)=  0.00000000E+00
  sigma(3 3)=  2.27754600E-07  sigma(2 1)=  0.00000000E+00

-Cartesian components of stress tensor (GPa)         [Pressure=  7.8704E+01 GPa]
- sigma(1 1)= -1.76148352E+02  sigma(3 2)=  0.00000000E+00
- sigma(2 2)= -5.99717668E+01  sigma(3 1)=  0.00000000E+00
- sigma(3 3)=  6.70077055E-03  sigma(2 1)=  0.00000000E+00

== END DATASET(S) ==============================================================

 -outvars: echo values of variables after computation  --------
            acell      1.0000000000E+00  1.0000000000E+00  1.0000000000E+00 Bohr
              amu      1.08110000E+01  1.40067400E+01
           diemac      1.00000000E+01
           diemix      7.00000000E-01
             ecut      7.50000000E+01 Hartree
           etotal1    -2.6361155443E+01
            fcart1     9.8183589308E-06  3.6542765433E-22 -0.0000000000E+00
                      -9.6274792600E-06 -5.6726424188E-22 -0.0000000000E+00
                      -9.8183589308E-06  7.1920140479E-22 -0.0000000000E+00
                       9.6274792600E-06 -5.1736481724E-22 -0.0000000000E+00
-          fftalg         112
           ionmov           2
           istwfk        1    0    1    0    0    0    1
              ixc          11
           jdtset        1
              kpt      0.00000000E+00  0.00000000E+00  5.00000000E-01
                       2.50000000E-01  0.00000000E+00  5.00000000E-01
                       5.00000000E-01  0.00000000E+00  5.00000000E-01
                       2.50000000E-01  2.50000000E-01  5.00000000E-01
                       5.00000000E-01  2.50000000E-01  5.00000000E-01
                      -2.50000000E-01  2.50000000E-01  5.00000000E-01
                       5.00000000E-01  5.00000000E-01  5.00000000E-01
         kptrlatt        4    0    0      0    4    0      0    0    1
          kptrlen      1.73600000E+01
P           mkmem           7
            natom           4
            nband           8
           ndtset           1
            ngfft          36      36     240
             nkpt           7
            nstep         100
             nsym           8
            ntime        1000
           ntypat           2
              occ      2.000000  2.000000  2.000000  2.000000  2.000000  2.000000
                       2.000000  2.000000
                       2.000000  2.000000  2.000000  2.000000  2.000000  2.000000
                       2.000000  2.000000
                       2.000000  2.000000  2.000000  2.000000  2.000000  2.000000
                       2.000000  2.000000
                       2.000000  2.000000  2.000000  2.000000  2.000000  2.000000
                       2.000000  2.000000
                       2.000000  2.000000  2.000000  2.000000  2.000000  2.000000
                       2.000000  2.000000
                       2.000000  2.000000  2.000000  2.000000  2.000000  2.000000
                       2.000000  2.000000
                       2.000000  2.000000  2.000000  2.000000  2.000000  2.000000
                       2.000000  2.000000
           occopt           3
            rprim      2.1700000000E+00  3.7700000000E+00  0.0000000000E+00
                      -2.1700000000E+00  3.7700000000E+00  0.0000000000E+00
                       0.0000000000E+00  0.0000000000E+00  3.0000000000E+01
           shiftk      0.00000000E+00  0.00000000E+00  5.00000000E-01
          spgroup          63
           strten1    -5.9871617924E-03 -2.0383992659E-03  2.2775460026E-07
                       0.0000000000E+00  0.0000000000E+00  0.0000000000E+00
           symrel      1  0  0   0  1  0   0  0  1      -1  0  0   0 -1  0   0  0 -1
                       0 -1  0  -1  0  0   0  0 -1       0  1  0   1  0  0   0  0  1
                      -1  0  0   0 -1  0   0  0  1       1  0  0   0  1  0   0  0 -1
                       0  1  0   1  0  0   0  0 -1       0 -1  0  -1  0  0   0  0  1
            tnons      0.0000000  0.0000000  0.0000000     0.0000000  0.0000000  0.0000000
                       0.0000000  0.0000000  0.5000000     0.0000000 -0.0000000  0.5000000
                       0.0000000  0.0000000  0.5000000     0.0000000  0.0000000  0.5000000
                       0.0000000 -0.0000000  0.0000000     0.0000000  0.0000000  0.0000000
           toldfe      1.00000000E-08 Hartree
            typat      1  2  1  2
              wtk        0.06250    0.25000    0.12500    0.12500    0.25000    0.12500
                         0.06250
           xangst     -5.7415754295E-01  1.9949980764E+00  3.9688290644E+00
                       5.7415834420E-01  1.9949980764E+00  3.9688290644E+00
                       5.7415754295E-01  1.9949980764E+00  1.1906487193E+01
                      -5.7415834420E-01  1.9949980764E+00  1.1906487193E+01
            xcart     -1.0850005133E+00  3.7700000000E+00  7.5000000000E+00
                       1.0850020274E+00  3.7700000000E+00  7.5000000000E+00
                       1.0850005133E+00  3.7700000000E+00  2.2500000000E+01
                      -1.0850020274E+00  3.7700000000E+00  2.2500000000E+01
             xred      2.4999988173E-01  7.5000011827E-01  2.5000000000E-01
                       7.5000046715E-01  2.4999953285E-01  2.5000000000E-01
                       7.5000011827E-01  2.4999988173E-01  7.5000000000E-01
                       2.4999953285E-01  7.5000046715E-01  7.5000000000E-01
            znucl        5.00000    7.00000

 The spacegroup number, the magnetic point group, and/or the number of symmetries
 have changed between the initial recognition based on the input file
 and a postprocessing based on the final acell, rprim, and xred.
 More details in the log file.

- Timing analysis has been suppressed with timopt=0

 Suggested references for the acknowledgment of ABINIT usage.

 Calculation completed.
.Delivered 179 WARNINGs and   4 COMMENTs to log file.